c Random 5-CNF over 20 variables and 120 clauses
c Generated with `cnfgen`
c (C) 2012-2016 Massimo Lauria <lauria.massimo@gmail.com>
c https://massimolauria.github.io/cnfgen
c
c COMMAND LINE: cnfgen --output tmp-5-20-120.dimacs --output-format dimacs randkcnf 5 20 120
c
c sdimacs generated by gen-sdimacs
c
p cnf 20 120
e 11 12 13 14 15 16 17 18 19 20 0
r 0.37 1 2 3 4 5 6 7 8 9 10 0
3 5 -6 10 19 0
2 6 -15 -18 20 0
-2 -4 -7 -11 15 0
-9 10 11 -12 15 0
-3 -6 -7 14 -20 0
-3 9 -13 -15 20 0
5 -6 10 -14 -18 0
-5 -13 -15 16 -18 0
-9 -13 14 15 -20 0
5 -6 7 -10 18 0
1 -6 11 -12 -20 0
4 -8 12 15 -16 0
-1 2 4 -6 20 0
-4 6 -13 -17 18 0
1 4 6 -7 18 0
-4 6 -9 -11 16 0
1 7 -11 16 -17 0
-1 -2 5 17 19 0
-1 -5 -7 -8 15 0
3 4 -7 -15 -20 0
3 9 11 -14 17 0
-3 4 5 -11 13 0
5 -6 -14 17 -18 0
2 -4 -10 -15 -17 0
-2 -5 10 12 17 0
-1 2 -4 -12 -14 0
-2 -9 -13 15 20 0
-5 11 14 15 18 0
2 3 -9 12 -19 0
5 -8 11 -12 -16 0
3 6 10 14 -18 0
4 10 -12 -16 19 0
-1 -3 -4 -15 -17 0
-1 4 -5 -15 -17 0
-1 5 -11 18 20 0
-2 5 6 12 -17 0
-11 12 13 -15 -17 0
-3 4 -7 -10 -11 0
1 12 14 17 -19 0
4 5 -12 -14 19 0
-5 12 16 17 -20 0
-4 -7 -8 -9 -17 0
5 -8 16 19 20 0
-6 10 -11 17 -20 0
-1 7 -10 -15 -19 0
-1 -6 -8 -11 20 0
-1 -4 13 14 -15 0
3 -4 5 10 17 0
-1 3 12 -14 -19 0
1 7 -11 15 -20 0
1 -4 12 -15 17 0
4 7 -15 16 -17 0
-1 -5 -12 -17 -18 0
1 2 5 -8 20 0
-7 -8 -13 -19 -20 0
7 10 -18 -19 -20 0
2 3 -10 11 -16 0
-1 4 5 6 -16 0
-2 7 14 16 -18 0
-6 -10 11 -15 18 0
-2 4 -14 -18 -20 0
4 8 -9 -12 17 0
-2 3 -5 13 15 0
2 -6 -8 -17 20 0
6 13 14 15 -19 0
3 -4 5 15 16 0
-2 -3 -7 -11 17 0
4 -6 -8 -9 -16 0
7 10 11 -14 19 0
-1 -2 10 16 -17 0
-1 7 -14 17 -19 0
1 -2 -4 16 -18 0
-8 -13 15 -16 -20 0
5 6 -15 16 -18 0
1 7 9 -17 -19 0
-3 -5 8 14 16 0
-9 -12 -16 17 -19 0
-4 -5 7 10 -13 0
3 4 -10 -11 15 0
-8 16 17 18 -19 0
1 8 14 -17 18 0
1 5 -8 12 -13 0
-4 -8 -12 -18 19 0
-4 6 13 -14 -15 0
-4 5 10 -12 -15 0
4 -14 17 -18 20 0
-3 6 -9 12 -17 0
1 3 -8 -10 -20 0
-2 -5 10 11 -17 0
5 -6 -8 -13 -14 0
1 -4 -8 11 12 0
1 3 -7 -12 -14 0
1 5 -11 -18 19 0
-2 -6 15 18 19 0
2 -3 -5 10 17 0
-4 -8 -9 13 -18 0
4 -5 -7 -14 -20 0
5 10 11 -13 18 0
-1 3 6 8 -20 0
-5 -7 8 -12 13 0
1 4 -5 16 -17 0
2 3 10 12 19 0
2 5 -8 -16 -17 0
-1 -4 -9 11 15 0
-1 -2 8 14 -15 0
1 4 -8 -14 -16 0
-2 -3 6 -13 15 0
-1 -7 -10 -13 -20 0
-5 -6 11 -17 19 0
-5 6 8 -19 -20 0
7 -9 10 -11 17 0
4 6 -9 -15 -20 0
-6 -8 -9 -14 -15 0
8 -13 -16 -18 -20 0
-4 -5 7 18 19 0
9 -14 15 16 -18 0
4 8 -15 18 20 0
-2 4 -10 -17 -20 0
1 5 6 12 -17 0
9 -11 -14 17 -18 0
